c Random generated cnf formula, satisfiable: true
p cnf 10 50
4 2 -7 0
6 -8 -3 0
-3 5 2 0
8 -6 -10 0
1 -5 6 0
10 7 6 0
-7 -6 1 0
-4 -10 -5 0
10 1 4 0
9 4 -10 0
4 -9 8 0
5 6 -9 0
9 -10 -3 0
-3 4 6 0
-8 -1 -4 0
-7 -1 9 0
2 8 -6 0
-9 7 -5 0
-2 3 -10 0
-8 -4 -2 0
-2 5 -4 0
2 8 9 0
6 7 8 0
-10 4 -5 0
3 -8 -9 0
-8 -1 3 0
10 4 -7 0
7 -3 -6 0
2 -4 -3 0
-5 9 1 0
7 -10 -5 0
2 10 -8 0
-2 -5 9 0
5 -2 -10 0
-1 6 -9 0
-6 8 -3 0
-10 -3 2 0
-2 5 -3 0
3 -1 4 0
-4 2 -1 0
-6 1 10 0
6 4 -7 0
3 -5 9 0
-6 -1 4 0
1 8 5 0
-2 -10 -6 0
2 -1 8 0
8 1 4 0
-3 2 -1 0
-3 -4 1 0
